Rolling Horizon v2.gms
$offOrder
$onImplicitAssign
Sets
time /1*168/

otime(time) optimization time used in the model;

alias (time,i)

scalar interval "length of each interval (hours)" /24/, look_ahead "number of additional intervals to look past the current operating period" /24/, po 'start time of each optimization period', pt "end time of each optimization period plus look ahead" ;

parameter start(time), end(time), look"look ahead", h "number of hours of storage", p "power capacity of storage device", E_min, E_max, PF, cost_op, max_charge, max_disch, eff_c, eff_dc, rate_loss, ini_energy;

h = 10;
p = 500;
E_min = 0;
E_max = h*p;
PF = 3;
eff_c = 0.52;
eff_dc = 0.52;
cost_op = 0;
rate_loss = 0;
ini_energy = 2500;


table ts(time,*)
$offlisting
$ondelim
$include Data_168.csv
$offdelim
$onlisting
;

Parameter price(time);
price(time)=ts(time,'price');

display price;




variable E_stored(time);
variable E_pur(time);
variable E_sold(time);
Variable E_dischar(time);
Variable E_charge(time);

variable E_aval(time);
variable E_loss(time);
variable rev(time);
variable cost(time);
variable Cost_pur(time);
variable Profit;
Binary Variable z_charge(time);
Binary Variable z_dischar(time);
E_charge.lo(time) = 0;
E_dischar.lo(time) = 0;





equation e1(time), e1a(time), e2(time), e3(time), e4(time), e4a(time), e5(time), e6(time), e7(time), e9(time), e10(time), e11(time), e13(time), e14;

e1(time)$otime(time)..    E_min =l= E_aval(time);
e1a(time)$otime(time)..   E_aval(time) =l= E_max;

e2(time)$otime(time)..   E_charge(time) =l= z_charge(time)*p;

e3(time)$otime(time)..   E_dischar(time) =l= z_dischar(time)*p;
e4(time)$otime(time)..    z_charge(time) + z_dischar(time) =l= 1;
e4a(time)$otime(time)..   E_charge(time) =e= E_pur(time)*eff_c;
e5(time)$otime(time)..    E_dischar(time) =e= E_sold(time)/eff_dc;
e6(time)$otime(time)..    E_aval(time) =e= E_stored(time)-E_loss(time);
e7(time)$otime(time)..    E_stored(time) =e= ini_energy$(ord(time)=1)+E_stored[time-1]$(ord(time)>1)+E_charge(time)-E_dischar(time);
e9(time)$otime(time)..    E_loss(time) =e= E_stored(time)*rate_loss;
e10(time)$otime(time)..   Rev(time) =e= price(time)*E_sold(time);
e11(time)$otime(time)..   cost(time) =e= Cost_pur(time)+(cost_op*E_aval(time));
e13(time)$otime(time)..   Cost_pur(time) =e= E_pur(time)*price(time);
e14..   Profit =e= sum(otime(time), rev(time)-cost(time));

model energy_storage /all/;

loop(i$(ord(i) <= card(i) / interval),
    
     po = (interval * (i.val - 1)) + 1;
     pt = ((interval * i.val) + look_ahead);
     start(time) = po;
     end(time) = pt$(pt<card(i));
     otime(time)$(ord(time) >= start(time) and ord(time) <= end(time)) = yes;
   
     display otime, start, end, po, pt;
     solve energy_storage maximizing Profit using mip;
     E_stored.fx(otime)$(ord(otime)<(pt-(look_ahead-1))) = E_stored.l(otime);
);

*this creates the iis option file for debugging infeasibility*
$onecho > cplex.opt
iis 1
$offEcho

*this tells the solver to look for the option file to load*
energy_storage.optfile=1;

