Rolling Horizon v2.gms.log

--- Job Rolling Horizon v2.gms Start 06/16/23 02:54:51 43.1.0 203303bb WEX-WEI x86 64bit/MS Windows
--- Applying:
    C:\GAMS\43\gmsprmNT.txt
--- GAMS Parameters defined
    Input "C:\Users\Remi\OneDrive - UCB-O365\Documents\lecture notes\MSc\Thesis\GAMS\Rolling Horizon v2.gms"
    PageSize 0
    ScrDir "C:\Users\Remi\OneDrive - UCB-O365\Documents\lecture notes\MSc\Thesis\GAMS\225c\"
    SysDir C:\GAMS\43\
    LogOption 3
    ErrMsg 1
    ErrorLog 99
    IDE 1
    LstTitleLeftAligned 1
Licensee: GAMS Community License for Remi Akinwonmi      G230220|0002AO-GEN
          University of Colorado at Boulder, Dept. of Mechanical EngiCL5252
          C:\GAMS\43\gamslice.txt
          Remi Akinwonmi, reak4480@colorado.edu                            
          Community license for demonstration and instructional purposes only
Processor information: 1 socket(s), 4 core(s), and 4 thread(s) available
GAMS 43.1.0   Copyright (C) 1987-2023 GAMS Development. All rights reserved
--- Starting compilation
--- Rolling Horizon v2.gms(29) 3 Mb
--- . Data_168.csv(169) 3 Mb
--- Rolling Horizon v2.gms(98) 3 Mb
--- $echo File C:\Users\Remi\OneDrive - UCB-O365\Documents\lecture notes\MSc\Thesis\GAMS\cplex.opt
--- Rolling Horizon v2.gms(104) 3 Mb
--- Starting execution: elapsed 0:00:00.012
--- Rolling Horizon v2.gms(253) 4 Mb
--- Generating MIP model energy_storage
--- Rolling Horizon v2.gms(262) 4 Mb
--- LOOPS i = 1
---   625 rows  577 columns  1,344 non-zeroes
---   96 discrete-columns
--- Range statistics (absolute non-zero finite values)
--- RHS       [min, max] : [ 1.000E+00, 5.000E+03] - Zero values observed as well
--- Bound     [min, max] : [ 1.000E+00, 1.000E+00] - Zero values observed as well
--- Matrix    [min, max] : [ 5.200E-01, 5.000E+02]
--- Executing CPLEX (Solvelink=2): elapsed 0:00:00.020

IBM ILOG CPLEX   43.1.0 203303bb Apr 27, 2023          WEI x86 64bit/MS Window

--- *** This solver runs with a community license. No commercial use.
--- GMO setup time: 0.00s
--- Space for names approximately 0.02 Mb
--- Use option 'names no' to turn use of names off
--- GMO memory 0.64 Mb (peak 0.64 Mb)
--- Dictionary memory 0.00 Mb
--- Cplex 22.1.1.0 link memory 0.02 Mb (peak 0.06 Mb)
--- Starting Cplex

Version identifier: 22.1.1.0 | 2022-11-27 | 9160aff4d
CPXPARAM_Advance                                 0
CPXPARAM_Threads                                 1
CPXPARAM_MIP_Display                             4
CPXPARAM_MIP_Pool_Capacity                       0
CPXPARAM_MIP_Tolerances_AbsMIPGap                0
Generic callback                                 0x50
Tried aggregator 2 times.
MIP Presolve eliminated 432 rows and 337 columns.
Aggregator did 53 substitutions.
Reduced MIP has 139 rows, 187 columns, and 373 nonzeros.
Reduced MIP has 48 binaries, 0 generals, 0 SOSs, and 0 indicators.
Presolve time = 0.00 sec. (0.72 ticks)
Found incumbent of value 0.000000 after 0.02 sec. (0.89 ticks)
Probing time = 0.00 sec. (0.02 ticks)
Tried aggregator 1 time.
Detecting symmetries...
Reduced MIP has 139 rows, 187 columns, and 373 nonzeros.
Reduced MIP has 48 binaries, 0 generals, 0 SOSs, and 0 indicators.
Presolve time = 0.00 sec. (0.26 ticks)
Probing time = 0.00 sec. (0.02 ticks)
MIP emphasis: balance optimality and feasibility.
MIP search method: dynamic search.
Parallel mode: none, using 1 thread.
Tried aggregator 1 time.
Aggregator did 48 substitutions.
Reduced LP has 91 rows, 139 columns, and 277 nonzeros.
Presolve time = 0.00 sec. (0.10 ticks)
Initializing dual steep norms . . .

Iteration log . . .
Iteration:     1   Dual objective     =        194461.800000
Initializing dual steep norms . . .
Root relaxation solution time = 0.00 sec. (0.29 ticks)

        Nodes                                         Cuts/
   Node  Left     Objective  IInf  Best Integer    Best Bound    ItCnt     Gap

*     0+    0                            0.0000   361844.6000              --- 
Found incumbent of value 0.000000 after 0.02 sec. (1.60 ticks)
*     0     0      integral     0    41678.0000    41678.0000        6    0.00%
Elapsed time = 0.02 sec. (1.63 ticks, tree = 0.00 MB)
Found incumbent of value 41678.000000 after 0.02 sec. (1.63 ticks)

Root node processing (before b&c):
  Real time             =    0.02 sec. (1.64 ticks)
Sequential b&c:
  Real time             =    0.00 sec. (0.00 ticks)
                          ------------
Total (root+branch&cut) =    0.02 sec. (1.64 ticks)

--- MIP status (101): integer optimal solution.
--- Cplex Time: 0.02sec (det. 1.64 ticks)

--- Returning a primal only solution to GAMS (marginals all set to NA).
--- Fixing integer variables and solving final LP...

Version identifier: 22.1.1.0 | 2022-11-27 | 9160aff4d
CPXPARAM_Advance                                 2
CPXPARAM_Threads                                 1
CPXPARAM_MIP_Display                             4
CPXPARAM_MIP_Pool_Capacity                       0
CPXPARAM_MIP_Tolerances_AbsMIPGap                0
Tried aggregator 1 time.
LP Presolve eliminated 529 rows and 482 columns.
Aggregator did 95 substitutions.
All rows and columns eliminated.
Presolve time = 0.00 sec. (0.31 ticks)

--- Fixed MIP status (1): optimal.
--- Cplex Time: 0.00sec (det. 0.52 ticks)


Proven optimal solution
MIP Solution:        41678.000000    (6 iterations, 0 nodes)
Final Solve:         41678.000000    (0 iterations)

Best possible:       41678.000000
Absolute gap:            0.000000
Relative gap:            0.000000

--- Reading solution for model energy_storage
--- Executing after solve: elapsed 0:00:00.094
--- Rolling Horizon v2.gms(253) 4 Mb
--- Generating MIP model energy_storage
--- Rolling Horizon v2.gms(262) 4 Mb
--- LOOPS i = 2
---   937 rows  865 columns  2,016 non-zeroes
---   144 discrete-columns
--- Range statistics (absolute non-zero finite values)
--- RHS       [min, max] : [ 1.000E+00, 5.000E+03] - Zero values observed as well
--- Bound     [min, max] : [ 1.000E+00, 2.500E+03] - Zero values observed as well
--- Matrix    [min, max] : [ 5.200E-01, 5.000E+02]
--- Executing CPLEX (Solvelink=2): elapsed 0:00:00.098

IBM ILOG CPLEX   43.1.0 203303bb Apr 27, 2023          WEI x86 64bit/MS Window

--- *** This solver runs with a community license. No commercial use.
--- GMO setup time: 0.00s
--- Space for names approximately 0.03 Mb
--- Use option 'names no' to turn use of names off
--- GMO memory 0.71 Mb (peak 0.71 Mb)
--- Dictionary memory 0.00 Mb
--- Cplex 22.1.1.0 link memory 0.03 Mb (peak 0.10 Mb)
--- Starting Cplex

Version identifier: 22.1.1.0 | 2022-11-27 | 9160aff4d
CPXPARAM_Advance                                 2
CPXPARAM_Threads                                 1
CPXPARAM_MIP_Display                             4
CPXPARAM_MIP_Pool_Capacity                       0
CPXPARAM_MIP_Tolerances_AbsMIPGap                0
Generic callback                                 0x50
Tried aggregator 2 times.
MIP Presolve eliminated 698 rows and 579 columns.
Aggregator did 98 substitutions.
Reduced MIP has 140 rows, 188 columns, and 375 nonzeros.
Reduced MIP has 48 binaries, 0 generals, 0 SOSs, and 0 indicators.
Presolve time = 0.00 sec. (1.03 ticks)
Found incumbent of value -168297.446154 after 0.00 sec. (1.21 ticks)
Probing time = 0.00 sec. (0.02 ticks)
Tried aggregator 1 time.
Detecting symmetries...
Reduced MIP has 140 rows, 188 columns, and 375 nonzeros.
Reduced MIP has 48 binaries, 0 generals, 0 SOSs, and 0 indicators.
Presolve time = 0.00 sec. (0.26 ticks)
Probing time = 0.00 sec. (0.02 ticks)
MIP emphasis: balance optimality and feasibility.
MIP search method: dynamic search.
Parallel mode: none, using 1 thread.
Tried aggregator 1 time.
Aggregator did 48 substitutions.
Reduced LP has 92 rows, 140 columns, and 279 nonzeros.
Presolve time = 0.00 sec. (0.11 ticks)
Initializing dual steep norms . . .

Iteration log . . .
Iteration:     1   Dual objective     =        295459.061538
Initializing dual steep norms . . .
Root relaxation solution time = 0.00 sec. (0.28 ticks)

        Nodes                                         Cuts/
   Node  Left     Objective  IInf  Best Integer    Best Bound    ItCnt     Gap

*     0+    0                      -168297.4462   319261.8000           289.70%
Found incumbent of value -168297.446154 after 0.00 sec. (1.95 ticks)
*     0     0      integral     0    84159.6615    84159.6615        7    0.00%
Elapsed time = 0.00 sec. (1.98 ticks, tree = 0.00 MB)
Found incumbent of value 84159.661538 after 0.00 sec. (1.98 ticks)

Root node processing (before b&c):
  Real time             =    0.00 sec. (1.99 ticks)
Sequential b&c:
  Real time             =    0.00 sec. (0.00 ticks)
                          ------------
Total (root+branch&cut) =    0.00 sec. (1.99 ticks)

--- MIP status (101): integer optimal solution.
--- Cplex Time: 0.00sec (det. 1.99 ticks)

--- Returning a primal only solution to GAMS (marginals all set to NA).
--- Fixing integer variables and solving final LP...

Version identifier: 22.1.1.0 | 2022-11-27 | 9160aff4d
CPXPARAM_Advance                                 2
CPXPARAM_Threads                                 1
CPXPARAM_MIP_Display                             4
CPXPARAM_MIP_Pool_Capacity                       0
CPXPARAM_MIP_Tolerances_AbsMIPGap                0
Tried aggregator 1 time.
LP Presolve eliminated 840 rows and 761 columns.
Aggregator did 93 substitutions.
Reduced LP has 3 rows, 11 columns, and 13 nonzeros.
Presolve time = 0.00 sec. (0.43 ticks)
Initializing dual steep norms . . .

Iteration log . . .
Iteration:     1   Dual objective     =         84159.661538

--- Fixed MIP status (1): optimal.
--- Cplex Time: 0.00sec (det. 0.76 ticks)


Proven optimal solution
MIP Solution:        84159.661538    (7 iterations, 0 nodes)
Final Solve:         84159.661538    (1 iterations)

Best possible:       84159.661538
Absolute gap:            0.000000
Relative gap:            0.000000

--- Reading solution for model energy_storage
--- Executing after solve: elapsed 0:00:00.155
--- Rolling Horizon v2.gms(253) 4 Mb
--- Generating MIP model energy_storage
--- Rolling Horizon v2.gms(262) 4 Mb
--- LOOPS i = 3
---   1,249 rows  1,153 columns  2,674 non-zeroes
---   192 discrete-columns
--- Range statistics (absolute non-zero finite values)
--- RHS       [min, max] : [ 1.000E+00, 5.000E+03] - Zero values observed as well
--- Bound     [min, max] : [ 1.000E+00, 2.500E+03] - Zero values observed as well
--- Matrix    [min, max] : [ 1.000E-02, 5.000E+02]
--- Executing CPLEX (Solvelink=2): elapsed 0:00:00.159

IBM ILOG CPLEX   43.1.0 203303bb Apr 27, 2023          WEI x86 64bit/MS Window

--- *** This solver runs with a community license. No commercial use.
--- GMO setup time: 0.00s
--- Space for names approximately 0.04 Mb
--- Use option 'names no' to turn use of names off
--- GMO memory 0.77 Mb (peak 0.78 Mb)
--- Dictionary memory 0.00 Mb
--- Cplex 22.1.1.0 link memory 0.04 Mb (peak 0.13 Mb)
--- Starting Cplex

Version identifier: 22.1.1.0 | 2022-11-27 | 9160aff4d
CPXPARAM_Advance                                 2
CPXPARAM_Threads                                 1
CPXPARAM_MIP_Display                             4
CPXPARAM_MIP_Pool_Capacity                       0
CPXPARAM_MIP_Tolerances_AbsMIPGap                0
Generic callback                                 0x50
Tried aggregator 2 times.
MIP Presolve eliminated 975 rows and 825 columns.
MIP Presolve added 7 rows and 0 columns.
Aggregator did 137 substitutions.
Reduced MIP has 143 rows, 191 columns, and 381 nonzeros.
Reduced MIP has 48 binaries, 0 generals, 0 SOSs, and 0 indicators.
Presolve time = 0.00 sec. (1.40 ticks)
Found incumbent of value -206616.784615 after 0.00 sec. (1.60 ticks)
Probing time = 0.00 sec. (0.02 ticks)
Tried aggregator 1 time.
Detecting symmetries...
Reduced MIP has 143 rows, 191 columns, and 381 nonzeros.
Reduced MIP has 48 binaries, 0 generals, 0 SOSs, and 0 indicators.
Presolve time = 0.00 sec. (0.26 ticks)
Probing time = 0.00 sec. (0.02 ticks)
MIP emphasis: balance optimality and feasibility.
MIP search method: dynamic search.
Parallel mode: none, using 1 thread.
Tried aggregator 1 time.
Aggregator did 48 substitutions.
Reduced LP has 95 rows, 143 columns, and 285 nonzeros.
Presolve time = 0.00 sec. (0.11 ticks)
Initializing dual steep norms . . .

Iteration log . . .
Iteration:     1   Dual objective     =        288949.292308
Initializing dual steep norms . . .
Root relaxation solution time = 0.00 sec. (0.30 ticks)

        Nodes                                         Cuts/
   Node  Left     Objective  IInf  Best Integer    Best Bound    ItCnt     Gap

*     0+    0                      -206616.7846   290979.0000           240.83%
Found incumbent of value -206616.784615 after 0.00 sec. (2.39 ticks)
*     0     0      integral     0   150070.4462   150070.4462       14    0.00%
Elapsed time = 0.00 sec. (2.42 ticks, tree = 0.00 MB)
Found incumbent of value 150070.446154 after 0.00 sec. (2.42 ticks)

Root node processing (before b&c):
  Real time             =    0.00 sec. (2.44 ticks)
Sequential b&c:
  Real time             =    0.00 sec. (0.00 ticks)
                          ------------
Total (root+branch&cut) =    0.00 sec. (2.44 ticks)

--- MIP status (101): integer optimal solution.
--- Cplex Time: 0.00sec (det. 2.44 ticks)

--- Returning a primal only solution to GAMS (marginals all set to NA).
--- Fixing integer variables and solving final LP...

Version identifier: 22.1.1.0 | 2022-11-27 | 9160aff4d
CPXPARAM_Advance                                 2
CPXPARAM_Threads                                 1
CPXPARAM_MIP_Display                             4
CPXPARAM_MIP_Pool_Capacity                       0
CPXPARAM_MIP_Tolerances_AbsMIPGap                0
Tried aggregator 1 time.
LP Presolve eliminated 1152 rows and 1044 columns.
Aggregator did 91 substitutions.
Reduced LP has 5 rows, 18 columns, and 22 nonzeros.
Presolve time = 0.00 sec. (0.63 ticks)
Initializing dual steep norms . . .

Iteration log . . .
Iteration:     1   Dual objective     =        216076.646154

--- Fixed MIP status (1): optimal.
--- Cplex Time: 0.00sec (det. 1.07 ticks)


Proven optimal solution
MIP Solution:       150070.446154    (14 iterations, 0 nodes)
Final Solve:        150070.446154    (3 iterations)

Best possible:      150070.446154
Absolute gap:            0.000000
Relative gap:            0.000000

--- Reading solution for model energy_storage
--- Executing after solve: elapsed 0:00:00.217
--- Rolling Horizon v2.gms(253) 4 Mb
--- Generating MIP model energy_storage
--- Rolling Horizon v2.gms(262) 5 Mb
--- LOOPS i = 4
---   1,561 rows  1,441 columns  3,332 non-zeroes
---   240 discrete-columns
--- Range statistics (absolute non-zero finite values)
--- RHS       [min, max] : [ 1.000E+00, 5.000E+03] - Zero values observed as well
--- Bound     [min, max] : [ 1.000E+00, 3.500E+03] - Zero values observed as well
--- Matrix    [min, max] : [ 1.000E-02, 5.000E+02]
--- Executing CPLEX (Solvelink=2): elapsed 0:00:00.224

IBM ILOG CPLEX   43.1.0 203303bb Apr 27, 2023          WEI x86 64bit/MS Window

--- *** This solver runs with a community license. No commercial use.
--- GMO setup time: 0.00s
--- Space for names approximately 0.05 Mb
--- Use option 'names no' to turn use of names off
--- GMO memory 0.84 Mb (peak 0.85 Mb)
--- Dictionary memory 0.00 Mb
--- Cplex 22.1.1.0 link memory 0.05 Mb (peak 0.16 Mb)
--- Starting Cplex

Version identifier: 22.1.1.0 | 2022-11-27 | 9160aff4d
CPXPARAM_Advance                                 2
CPXPARAM_Threads                                 1
CPXPARAM_MIP_Display                             4
CPXPARAM_MIP_Pool_Capacity                       0
CPXPARAM_MIP_Tolerances_AbsMIPGap                0
Generic callback                                 0x50
Tried aggregator 2 times.
MIP Presolve eliminated 1266 rows and 1078 columns.
MIP Presolve added 14 rows and 0 columns.
Aggregator did 169 substitutions.
Reduced MIP has 139 rows, 194 columns, and 373 nonzeros.
Reduced MIP has 48 binaries, 0 generals, 0 SOSs, and 0 indicators.
Presolve time = 0.00 sec. (1.72 ticks)
Found incumbent of value 47718.061538 after 0.00 sec. (1.94 ticks)
Probing time = 0.00 sec. (0.02 ticks)
Tried aggregator 1 time.
Detecting symmetries...
Reduced MIP has 139 rows, 194 columns, and 373 nonzeros.
Reduced MIP has 48 binaries, 0 generals, 0 SOSs, and 0 indicators.
Presolve time = 0.00 sec. (0.26 ticks)
Probing time = 0.00 sec. (0.02 ticks)
MIP emphasis: balance optimality and feasibility.
MIP search method: dynamic search.
Parallel mode: none, using 1 thread.
Tried aggregator 1 time.
Aggregator did 48 substitutions.
Reduced LP has 91 rows, 146 columns, and 277 nonzeros.
Presolve time = 0.00 sec. (0.11 ticks)
Initializing dual steep norms . . .

Iteration log . . .
Iteration:     1   Dual objective     =        282239.000000
Initializing dual steep norms . . .
Root relaxation solution time = 0.00 sec. (0.28 ticks)

        Nodes                                         Cuts/
   Node  Left     Objective  IInf  Best Integer    Best Bound    ItCnt     Gap

*     0+    0                        47718.0615   306782.0615           542.91%
Found incumbent of value 47718.061538 after 0.00 sec. (2.70 ticks)
*     0     0      integral     0   220710.7846   220710.7846        6    0.00%
Elapsed time = 0.00 sec. (2.73 ticks, tree = 0.00 MB)
Found incumbent of value 220710.784615 after 0.00 sec. (2.73 ticks)

Root node processing (before b&c):
  Real time             =    0.00 sec. (2.75 ticks)
Sequential b&c:
  Real time             =    0.00 sec. (0.00 ticks)
                          ------------
Total (root+branch&cut) =    0.00 sec. (2.75 ticks)

--- MIP status (101): integer optimal solution.
--- Cplex Time: 0.00sec (det. 2.75 ticks)

--- Returning a primal only solution to GAMS (marginals all set to NA).
--- Fixing integer variables and solving final LP...

Version identifier: 22.1.1.0 | 2022-11-27 | 9160aff4d
CPXPARAM_Advance                                 2
CPXPARAM_Threads                                 1
CPXPARAM_MIP_Display                             4
CPXPARAM_MIP_Pool_Capacity                       0
CPXPARAM_MIP_Tolerances_AbsMIPGap                0
Tried aggregator 1 time.
LP Presolve eliminated 1464 rows and 1334 columns.
Aggregator did 91 substitutions.
Reduced LP has 5 rows, 16 columns, and 20 nonzeros.
Presolve time = 0.00 sec. (0.77 ticks)
Initializing dual steep norms . . .

Iteration log . . .
Iteration:     1   Dual infeasibility =            16.884400
Iteration:     4   Dual objective     =        244863.061538

--- Fixed MIP status (1): optimal.
--- Cplex Time: 0.00sec (det. 1.32 ticks)


Proven optimal solution
MIP Solution:       220710.784615    (6 iterations, 0 nodes)
Final Solve:        220710.784615    (6 iterations)

Best possible:      220710.784615
Absolute gap:            0.000000
Relative gap:            0.000000

--- Reading solution for model energy_storage
--- Executing after solve: elapsed 0:00:00.295
--- Rolling Horizon v2.gms(253) 5 Mb
--- Generating MIP model energy_storage
--- Rolling Horizon v2.gms(262) 5 Mb
--- LOOPS i = 5
---   1,873 rows  1,729 columns  4,004 non-zeroes
---   288 discrete-columns
--- Range statistics (absolute non-zero finite values)
--- RHS       [min, max] : [ 1.000E+00, 5.000E+03] - Zero values observed as well
--- Bound     [min, max] : [ 1.000E+00, 5.000E+03] - Zero values observed as well
--- Matrix    [min, max] : [ 1.000E-02, 5.000E+02]
--- Executing CPLEX (Solvelink=2): elapsed 0:00:00.301

IBM ILOG CPLEX   43.1.0 203303bb Apr 27, 2023          WEI x86 64bit/MS Window

--- *** This solver runs with a community license. No commercial use.
--- GMO setup time: 0.00s
--- Space for names approximately 0.06 Mb
--- Use option 'names no' to turn use of names off
--- GMO memory 0.91 Mb (peak 0.93 Mb)
--- Dictionary memory 0.00 Mb
--- Cplex 22.1.1.0 link memory 0.05 Mb (peak 0.19 Mb)
--- Starting Cplex

Version identifier: 22.1.1.0 | 2022-11-27 | 9160aff4d
CPXPARAM_Advance                                 2
CPXPARAM_Threads                                 1
CPXPARAM_MIP_Display                             4
CPXPARAM_MIP_Pool_Capacity                       0
CPXPARAM_MIP_Tolerances_AbsMIPGap                0
Generic callback                                 0x50
Tried aggregator 2 times.
MIP Presolve eliminated 1551 rows and 1345 columns.
MIP Presolve added 7 rows and 0 columns.
Aggregator did 187 substitutions.
Reduced MIP has 141 rows, 197 columns, and 377 nonzeros.
Reduced MIP has 48 binaries, 0 generals, 0 SOSs, and 0 indicators.
Presolve time = 0.00 sec. (2.03 ticks)
Found incumbent of value 95795.446154 after 0.00 sec. (2.26 ticks)
Probing time = 0.00 sec. (0.02 ticks)
Tried aggregator 1 time.
Detecting symmetries...
Reduced MIP has 141 rows, 197 columns, and 377 nonzeros.
Reduced MIP has 48 binaries, 0 generals, 0 SOSs, and 0 indicators.
Presolve time = 0.00 sec. (0.26 ticks)
Probing time = 0.00 sec. (0.02 ticks)
MIP emphasis: balance optimality and feasibility.
MIP search method: dynamic search.
Parallel mode: none, using 1 thread.
Tried aggregator 1 time.
Aggregator did 48 substitutions.
Reduced LP has 93 rows, 149 columns, and 281 nonzeros.
Presolve time = 0.00 sec. (0.11 ticks)
Initializing dual steep norms . . .

Iteration log . . .
Iteration:     1   Dual objective     =        339607.846154
Initializing dual steep norms . . .
Root relaxation solution time = 0.00 sec. (0.29 ticks)

        Nodes                                         Cuts/
   Node  Left     Objective  IInf  Best Integer    Best Bound    ItCnt     Gap

*     0+    0                        95795.4462   417418.0462           335.74%
Found incumbent of value 95795.446154 after 0.00 sec. (3.05 ticks)
*     0     0      integral     0   223432.9846   223432.9846        7    0.00%
Elapsed time = 0.00 sec. (3.09 ticks, tree = 0.00 MB)
Found incumbent of value 223432.984615 after 0.00 sec. (3.09 ticks)

Root node processing (before b&c):
  Real time             =    0.00 sec. (3.11 ticks)
Sequential b&c:
  Real time             =    0.00 sec. (0.00 ticks)
                          ------------
Total (root+branch&cut) =    0.00 sec. (3.11 ticks)

--- MIP status (101): integer optimal solution.
--- Cplex Time: 0.00sec (det. 3.12 ticks)

--- Returning a primal only solution to GAMS (marginals all set to NA).
--- Fixing integer variables and solving final LP...

Version identifier: 22.1.1.0 | 2022-11-27 | 9160aff4d
CPXPARAM_Advance                                 2
CPXPARAM_Threads                                 1
CPXPARAM_MIP_Display                             4
CPXPARAM_MIP_Pool_Capacity                       0
CPXPARAM_MIP_Tolerances_AbsMIPGap                0
Tried aggregator 1 time.
LP Presolve eliminated 1776 rows and 1627 columns.
Aggregator did 94 substitutions.
Reduced LP has 2 rows, 8 columns, and 9 nonzeros.
Presolve time = 0.02 sec. (0.83 ticks)
Initializing dual steep norms . . .

Iteration log . . .
Iteration:     1   Dual infeasibility =            16.161600
Iteration:     3   Dual objective     =        241507.246154

--- Fixed MIP status (1): optimal.
--- Cplex Time: 0.02sec (det. 1.48 ticks)


Proven optimal solution
MIP Solution:       223432.984615    (7 iterations, 0 nodes)
Final Solve:        223432.984615    (4 iterations)

Best possible:      223432.984615
Absolute gap:            0.000000
Relative gap:            0.000000

--- Reading solution for model energy_storage
--- Executing after solve: elapsed 0:00:00.375
--- Rolling Horizon v2.gms(253) 5 Mb
--- Generating MIP model energy_storage
--- Rolling Horizon v2.gms(262) 5 Mb
--- LOOPS i = 6
---   1,873 rows  1,729 columns  4,004 non-zeroes
---   288 discrete-columns
--- Range statistics (absolute non-zero finite values)
--- RHS       [min, max] : [ 1.000E+00, 5.000E+03] - Zero values observed as well
--- Bound     [min, max] : [ 1.000E+00, 5.000E+03] - Zero values observed as well
--- Matrix    [min, max] : [ 1.000E-02, 5.000E+02]
--- Executing CPLEX (Solvelink=2): elapsed 0:00:00.381

IBM ILOG CPLEX   43.1.0 203303bb Apr 27, 2023          WEI x86 64bit/MS Window

--- *** This solver runs with a community license. No commercial use.
--- GMO setup time: 0.00s
--- Space for names approximately 0.06 Mb
--- Use option 'names no' to turn use of names off
--- GMO memory 0.91 Mb (peak 0.93 Mb)
--- Dictionary memory 0.00 Mb
--- Cplex 22.1.1.0 link memory 0.05 Mb (peak 0.19 Mb)
--- Starting Cplex

Version identifier: 22.1.1.0 | 2022-11-27 | 9160aff4d
CPXPARAM_Advance                                 2
CPXPARAM_Threads                                 1
CPXPARAM_MIP_Display                             4
CPXPARAM_MIP_Pool_Capacity                       0
CPXPARAM_MIP_Tolerances_AbsMIPGap                0
Generic callback                                 0x50
Tried aggregator 2 times.
MIP Presolve eliminated 1632 rows and 1456 columns.
Aggregator did 171 substitutions.
Reduced MIP has 69 rows, 102 columns, and 185 nonzeros.
Reduced MIP has 24 binaries, 0 generals, 0 SOSs, and 0 indicators.
Presolve time = 0.00 sec. (1.84 ticks)
Found incumbent of value -12723.923077 after 0.00 sec. (2.00 ticks)
Probing time = 0.00 sec. (0.01 ticks)
Tried aggregator 1 time.
Detecting symmetries...
Reduced MIP has 69 rows, 102 columns, and 185 nonzeros.
Reduced MIP has 24 binaries, 0 generals, 0 SOSs, and 0 indicators.
Presolve time = 0.00 sec. (0.13 ticks)
Probing time = 0.00 sec. (0.01 ticks)
MIP emphasis: balance optimality and feasibility.
MIP search method: dynamic search.
Parallel mode: none, using 1 thread.
Tried aggregator 1 time.
Aggregator did 24 substitutions.
Reduced LP has 45 rows, 78 columns, and 137 nonzeros.
Presolve time = 0.00 sec. (0.05 ticks)
Initializing dual steep norms . . .

Iteration log . . .
Iteration:     1   Dual objective     =        304001.784615
Initializing dual steep norms . . .
Root relaxation solution time = 0.00 sec. (0.13 ticks)

        Nodes                                         Cuts/
   Node  Left     Objective  IInf  Best Integer    Best Bound    ItCnt     Gap

*     0+    0                       -12723.9231   383730.7846              --- 
Found incumbent of value -12723.923077 after 0.00 sec. (2.43 ticks)
*     0     0      integral     0   223432.9846   223432.9846        6    0.00%
Elapsed time = 0.00 sec. (2.45 ticks, tree = 0.00 MB)
Found incumbent of value 223432.984615 after 0.00 sec. (2.45 ticks)

Root node processing (before b&c):
  Real time             =    0.00 sec. (2.47 ticks)
Sequential b&c:
  Real time             =    0.00 sec. (0.00 ticks)
                          ------------
Total (root+branch&cut) =    0.00 sec. (2.47 ticks)

--- MIP status (101): integer optimal solution.
--- Cplex Time: 0.00sec (det. 2.48 ticks)

--- Returning a primal only solution to GAMS (marginals all set to NA).
--- Fixing integer variables and solving final LP...

Version identifier: 22.1.1.0 | 2022-11-27 | 9160aff4d
CPXPARAM_Advance                                 2
CPXPARAM_Threads                                 1
CPXPARAM_MIP_Display                             4
CPXPARAM_MIP_Pool_Capacity                       0
CPXPARAM_MIP_Tolerances_AbsMIPGap                0
Tried aggregator 1 time.
LP Presolve eliminated 1825 rows and 1682 columns.
Aggregator did 47 substitutions.
All rows and columns eliminated.
Presolve time = 0.02 sec. (0.78 ticks)

--- Fixed MIP status (1): optimal.
--- Cplex Time: 0.02sec (det. 1.42 ticks)


Proven optimal solution
MIP Solution:       223432.984615    (6 iterations, 0 nodes)
Final Solve:        223432.984615    (0 iterations)

Best possible:      223432.984615
Absolute gap:            0.000000
Relative gap:            0.000000

--- Reading solution for model energy_storage
--- Executing after solve: elapsed 0:00:00.470
--- Rolling Horizon v2.gms(253) 5 Mb
--- Generating MIP model energy_storage
--- Rolling Horizon v2.gms(262) 5 Mb
--- LOOPS i = 7
---   1,873 rows  1,729 columns  4,004 non-zeroes
---   288 discrete-columns
--- Range statistics (absolute non-zero finite values)
--- RHS       [min, max] : [ 1.000E+00, 5.000E+03] - Zero values observed as well
--- Bound     [min, max] : [ 1.000E+00, 5.000E+03] - Zero values observed as well
--- Matrix    [min, max] : [ 1.000E-02, 5.000E+02]
--- Executing CPLEX (Solvelink=2): elapsed 0:00:00.481

IBM ILOG CPLEX   43.1.0 203303bb Apr 27, 2023          WEI x86 64bit/MS Window

--- *** This solver runs with a community license. No commercial use.
--- GMO setup time: 0.00s
--- Space for names approximately 0.06 Mb
--- Use option 'names no' to turn use of names off
--- GMO memory 0.91 Mb (peak 0.93 Mb)
--- Dictionary memory 0.00 Mb
--- Cplex 22.1.1.0 link memory 0.05 Mb (peak 0.19 Mb)
--- Starting Cplex

Version identifier: 22.1.1.0 | 2022-11-27 | 9160aff4d
CPXPARAM_Advance                                 2
CPXPARAM_Threads                                 1
CPXPARAM_MIP_Display                             4
CPXPARAM_MIP_Pool_Capacity                       0
CPXPARAM_MIP_Tolerances_AbsMIPGap                0
Generic callback                                 0x50
Tried aggregator 2 times.
MIP Presolve eliminated 1686 rows and 1534 columns.
Aggregator did 186 substitutions.
Reduced MIP has 0 rows, 9 columns, and 0 nonzeros.
Reduced MIP has 0 binaries, 0 generals, 0 SOSs, and 0 indicators.
Presolve time = 0.00 sec. (1.64 ticks)
Tried aggregator 1 time.
Reduced MIP has 0 rows, 9 columns, and 0 nonzeros.
Reduced MIP has 0 binaries, 0 generals, 0 SOSs, and 0 indicators.
Presolve time = 0.00 sec. (0.00 ticks)
Dual steepest-edge pricing selected.
MIP emphasis: balance optimality and feasibility.
MIP search method: dynamic search.
Parallel mode: none, using 1 thread.
Root relaxation solution time = 0.00 sec. (0.00 ticks)

        Nodes                                         Cuts/
   Node  Left     Objective  IInf  Best Integer    Best Bound    ItCnt     Gap

*     0     0      integral     0   223432.9846   223432.9846        0    0.00%
Elapsed time = 0.00 sec. (1.79 ticks, tree = 0.00 MB)
Found incumbent of value 223432.984615 after 0.00 sec. (1.79 ticks)

Root node processing (before b&c):
  Real time             =    0.00 sec. (1.81 ticks)
Sequential b&c:
  Real time             =    0.00 sec. (0.00 ticks)
                          ------------
Total (root+branch&cut) =    0.00 sec. (1.81 ticks)

--- MIP status (101): integer optimal solution.
--- Cplex Time: 0.00sec (det. 1.82 ticks)

--- Returning a primal only solution to GAMS (marginals all set to NA).
--- Fixing integer variables and solving final LP...

Version identifier: 22.1.1.0 | 2022-11-27 | 9160aff4d
CPXPARAM_Advance                                 2
CPXPARAM_Threads                                 1
CPXPARAM_MIP_Display                             4
CPXPARAM_MIP_Pool_Capacity                       0
CPXPARAM_MIP_Tolerances_AbsMIPGap                0
Tried aggregator 1 time.
LP Presolve eliminated 1872 rows and 1729 columns.
All rows and columns eliminated.
Presolve time = 0.00 sec. (0.73 ticks)

--- Fixed MIP status (1): optimal.
--- Cplex Time: 0.00sec (det. 1.38 ticks)


Proven optimal solution
MIP Solution:       223432.984615    (0 iterations, 0 nodes)
Final Solve:        223432.984615    (0 iterations)

Best possible:      223432.984615
Absolute gap:            0.000000
Relative gap:            0.000000

--- Reading solution for model energy_storage
--- Executing after solve: elapsed 0:00:00.586
--- Rolling Horizon v2.gms(272) 5 Mb
*** Status: Normal completion
--- Job Rolling Horizon v2.gms Stop 06/16/23 02:54:51 elapsed 0:00:00.587
